17546 17017 16509 15998 15723 15541 15209 14773 14419 14084 13710 13213 12995 12610 12588 12338 12183 11891 11757 11478 11322 11232 11024 10870 10673 10479 10440 10295 10134 9888 9724 9603 9579 9498 9321 9286 9164 9052 9031 8888 8840 8799 8757 8711 8665 8588 8537 8453 8375 8309 8165 8098 8030 7972 7878 7833 7757 7666 7630 7560 7523 7489 7444 7411 7361 7303 7267 7234 7186 7150 7111 7072 7060 7030 7008 6986 6941 6928 6886 6861 6844 6812 6799 6774 6764 6741 6714 6713 6682 6664 6660 6619 6581 6577 6536 6488 6478 6450 6433 6408 6349 6375 6359 6348 6321 6284 6284 6229 6205 6193 6178 6174 6168 6170 6123 6123 6117 6040 6066 6061 6051 6047 6045 6019 5975 5965 5891 5931 5924 5866 5864 5852 5837 5803 5814 5779 5787 5781 5756 5739 5717 5708 5700 5657 5657 5604 5620 5601 5597 5570 5555 5547 5515 5511 5491 5474 5440 5420 5366 5366 5307 5307 5283 5283 5278 5278 5271 5259 5243 5243 5241 5237 5233 5220 5197 5181 5177 5173 5170 5168 5166 5175 5168 5156 5155 5155 5137 5132 5075 5075 5059 5033 5018 5002 5022 5002 4959 4959 4949 4967 4963 4957 4991 4960 4952 4937 4925 4916 4916 4891 4859 4846 4842 4819 4826 4826 4813 4813 4805 4804 4803 4786 4790 4777 4777 4762 4752 4746 4746 4737 4738 4734 4707 4727 4681 4718 4716 4705 4697 4652 4643 4643 4621 4619 4600 4593 4593 4548 4548 4577 4565 4565 4572 4556 4523 4503 4501 4498 4462 4457 4455 4482 4481 4472 4454 4454 4454 4448 4456 4451 4451 4406 4406 4400 4363 4353 4389 4389 4385 4371 4382 4394 4388 4385 4382 4382 4371 4387 4379 4377 4376 4367 4365 4365 4353 4355 4354 4354 4344 4339 4312 4329 4320 4309 4343 4314 4314 4310 4286 4286 4286 4289 4281 4281 4270 4249 4243 4224 4234 4223 4287 4281 4277 4261 4260 4251 4250 4248 4248 4242 4242 4239 4244 4244 4238 4192 4192 4186 4141 4141 4141 4129 4204 4204 4187 4183 4177 4175 4173 4213 4206 4204 4202 4202 4190 4196 4183 4183 4161 4161 4136 4168 4150 4128 4127 4126 4114 4114 4110 4106 4114 4094 4082 4082 4080 4076 4067 4067 4055 4062 4062 4049 3954 3954 4052 4014 4003 3966 3966 3957 3957 3953 3944 3985 3985 3983 3979 3970 3966 3966 3966 3929 3929 3926 3925 3920 3918 3898 3898 3910 3909 3904 3896 3896 3892 3867 3867 3864 3864 3855 3853 3832 3826 3828 3823 3818 3813 3804 3801 3792 3778 3778 3812 3809 3803 3797 3794 3705 3609 3609 3623 3623 3693 3656 3623 3618 3618 3618 3614 3598 3594 3594 3582 3516 3516 3508 3508 3491 3491 3477 3475 3463 3455 3455 3453 3453 3447 3447 3445 3435 3433 3429 3427 3423 3414 3414 3414 3414 3414 3414 3414 3402 3402 3399 3396 3395 3388 3388 3382 3378 3374 3374 3373 3373 3373 3373 3373 3367 3367 3365 3365 3362 3360 3360 3360 3360 3340 3340 3338 3338 3338 3337 3337 3337 3337 3337 3337 3337 3333 3331 3327 3325 3321 3315 3311 3311 3311 3311 3311 3311 3311 3308 3308 3308 3308 3308 3308 3308 3304 3304 3304 3298 3295 3292 3285 3279 3279 3279 3271 3271 3265 3265 3265 3265 3265 3231 3231 3231 3216 3216 3216 3216 3216 3206 3206 3192 3192 3192 3192 3192 3188 3188 3188 3188 3188 3188 3188 3188 3188 3188 3188 3185 3185 3185 3183 3183 3183 3183 3183 3183 3183 3183 3177 3177 3170 3164 3164 3164 3164 3155 3155 3155 3155 3155 3155 3155 3155 3155 3155 3155 3155 3155 3155 3155 3155 3155 3155 3131 3131 3131 3131 3131 3131 3131 3131 3131 3131 3131 3131 3131 3131 3131 3131 3131 3131 3131 3131 3131 3108 3108 3108 3108 3108 3108 3108 3108 3108 3108 3108 3108 3108 3108 3108 3108 3108 3108 3108 3108 3108 3091 3091 3091 3091 3091 3091 3087 3087 3087 3087 3087 3087 3087 3087 3087 3087 3087 3087 3087 3087 3087 3087 3087 3087 3087 3087 3087 3087 3087 3071 3071 3071 3071 3071 3071 3071 3067 3067 3067 3067 3067 3067 3067 3067 3067 3067 3067 3067 3067 3067 3067 3067 3067 3067 3067 3067 3067 3067 3067 3067 3067 3067 3067 3067 3067 3067 3067 3067 3067 3067 3067 3067 3067 3067 3067 3067 3067 3067 3067 3067 3067 3067 3067 3067 3067 3067 3067 3067 3067 3067 3067 3067 3067 3067 3067 3067 3067 3067 3067 3067 3067 3067 3067 3067 3067 3053 3053 3053 3053 3053 3053 3053 3053 3053 3053 3053 3053 3053 3053 3053 3042 3042 3042 3042 3042 3042 3042 3042 3042 3038 3038 3038 3038 3038 3038 3038 3038 3038 3038 3038 3038 3038 3038 3038 3038 3038 3038 3038 3038 3038 3038 3038 3038 3038 3038 3038 3038 3038 3038 3038 3038 3022 3022 3022 3022 3022 3022 3022 3022 3010 3010 3010 3010 3010 3010 3010 3010 3010 3010 3002 3002 3002 3002 3002 3002 3002 3002 3002 2998 2998 2998 2998 2998 2998 2998 2998 2998 2998 2998 2998 2998 2998 2998 2998 2998 2998 2998 2998 2998 2998 2998 2998 2998 2998 2998 2998 2998 2998 2998 2998 2998 2998 2998 2998 2996 2996 2996 2996 2996 2996 2996 2996 2996 2996 2996 2996 2996 2996 2996 2996 2996 2996 2996 2996 2996 2996 2996 2996 2996 2996 2996 2996 2996 2996 2996 2996 2996 2996 2996 2996 2996 2996 2996 2996 2996 2996 2996 2996 2996 2996 2996 2996 2996 2996 2996 2996 2996 2996 2996 2996 2996 2996 2996 2996 2996 2996 2996 2996 2996 2996 2996 2996 2996 2996 2996 2996 2996 2996 2996 2996 2996 2996 2996 2996 2996 2996 2996 2996 2996 2996 2996 2996 2996 2996 2996 2996 2996 2996 2996 2996 2996 2996 2996 2996 2996 2996 2996 2996 2996 2996 2996 2996 2996 2996 2996 2996 2996 2996 2996 2996 2996 2996 2996 2996 2996 2996 2996 2996 2996 2996 2996 2996 2996 2996 2996 2996 2996 2996 2996 2996 2996 2996 2996 2996 2996 2996 2996 2996 2996 2996 2996 2996 2996 2996 2996 2996 2996 2996 2996 2996 2996 2996 2996 2996 2996 2996 2996 2996 2996 2996 2996 2996 2996 2996 2996 2996 2996 2996 2996 2996 2996 2996 2996 2996 2996 2996 2996 2996 2996 2996 2996 2996 2996 2996 2996 2996 2996 2996 2996 2996 2996 2996 2996 2996 2996 2996 2996 2996 2996 2996 2996 2996 2996 2996 2996 2996 2996 2996 2996 2996 2996 2996 2996 2996 2996 2996 2996 2996 2996 2996 2996 2996 2996 2996 2996 2996 2996 2996 2996 2996 2996 2996 2996 2996 2996 2996 2996 2996 2996 2996 2996 2996 2996 2996 2996 2996 2996 2996 2996 2996 2996 2996 2996 2996 2996 2996 2996 2996 2996 2996 2996 2996 2996 2996 2996 2996 2996 2996 2996 2996 2996 2996 2996 2996 2996 2996 2996 2996 2996 2996 2996 2996 2996 2996 2996 2996 2996 2996 2996 2996 2996 2996 2996 2996 2996 2996 2996 2996 2996 2996 2996 2996 2996 2996 2996 2996 2996 2996 2996 2996 2996 2996 2996 2996 2996 2996 2996 2996 2996 2996 2996 2996 2996 2996 2996 2996 2996 2996 2996 2996 2996 2996 2996 2996 2996 2996 2996 2996 2996 2996 2996 2996 2996 2996 2996 2996 2996 2996 2996 2996 2996 2996 2996 2996 2996 2996 2996 2996 2996 2996 2996 2996 2996 2996 2996 2996 2996 2996 2996 2996 2996 2996 2996 2996 2996 2996 2996 2996 2996 2996 2996 2996 2996 2996 2996 2996 2996 2996 2996 2996 2996 2996 2996 2996 2996 2996 2996 2996 2996 2996 2996 2996 2996 2996 2996 2996 2996 2996 2996 2996 2996 2996 2996 2996 2996 2996 2996 2996 2996 2996 2996 2996 2996 2996 2996 2996 2996 2996 2996 2996 2996 2996 2996 2996 2996 2996 2996 2996 2996 2996 2996 2996 2996 2996 2996 2996 2996 2996 2996 2996 2996 2996 2996 2996 2996 2996 2996 2996 2996 2996 2996 2996 2996 2996 2996 2996 2996 2996 2996 2996 2996 2996 2996 2996 2996 2996 2996 2996 2996 2996 2996 2996 2996 2996 2996 2996 2996 2996 2996 2996 2996 2996 2996 2996 2996 
13559 13025 12526 12000 11759 11566 11226 10787 10447 10099 9746 9243 9033 8636 8619 8381 8234 7941 7797 7554 7364 7267 7057 6899 6703 6504 6464 6318 6157 5921 5755 5631 5608 5527 5345 5310 5188 5076 5053 4941 4901 4829 4786 4735 4683 4618 4574 4497 4417 4338 4195 4153 4069 4025 3927 3882 3806 3721 3700 3616 3585 3543 3493 3466 3422 3362 3334 3296 3221 3185 3134 3099 3095 3059 3044 3013 2982 2952 2905 2892 2871 2838 2824 2791 2784 2771 2740 2740 2708 2681 2681 2637 2605 2596 2566 2546 2526 2495 2486 2457 2435 2417 2406 2395 2347 2341 2331 2285 2279 2275 2261 2261 2243 2229 2189 2189 2183 2158 2148 2120 2110 2097 2089 2060 2014 2014 2012 1970 1966 1905 1903 1891 1876 1865 1857 1842 1838 1827 1815 1792 1789 1778 1767 1707 1707 1702 1684 1677 1654 1642 1623 1611 1601 1584 1570 1548 1537 1525 1492 1485 1446 1446 1438 1432 1417 1413 1404 1398 1390 1385 1382 1366 1366 1349 1333 1330 1326 1321 1321 1317 1310 1301 1294 1294 1281 1271 1271 1266 1236 1236 1220 1150 1138 1134 1128 1121 1098 1098 1075 1075 1064 1064 1061 1040 1032 1023 1023 1011 988 988 963 903 903 892 888 887 873 873 865 864 864 856 846 845 844 824 822 818 817 813 807 800 794 793 787 784 779 773 770 757 752 752 730 728 719 712 710 703 700 675 675 673 673 661 621 617 616 612 611 606 601 599 592 592 589 586 586 565 565 552 552 548 548 544 542 542 538 538 529 529 528 523 519 519 517 517 516 515 515 514 512 512 512 504 494 494 493 493 490 490 490 474 474 474 474 474 474 473 465 465 461 461 461 461 461 458 458 456 456 456 456 456 456 456 453 453 452 452 451 451 449 446 445 440 440 408 408 408 408 406 406 406 406 406 404 403 385 385 380 380 380 380 379 352 352 352 351 351 349 349 349 311 311 306 297 297 287 284 283 283 283 283 283 283 283 281 281 281 281 281 281 279 279 279 279 279 279 279 279 279 274 274 274 268 268 268 268 268 268 268 268 266 264 264 264 262 260 260 260 260 260 255 255 255 241 216 216 216 216 216 211 211 211 211 211 211 203 203 203 185 185 185 185 185 169 162 137 86 50 12 5 5 4 1 0 0 0 0 0 0 0 0 0 0 0 0 0 0 0 0 0 0 0 0 0 0 0 0 0 0 0 0 0 0 0 0 0 0 0 0 0 0 0 0 0 0 0 0 0 0 0 0 0 0 0 0 0 0 0 0 0 0 0 0 0 0 0 0 0 0 0 0 0 0 0 0 0 0 0 0 0 0 0 0 0 0 0 0 0 0 0 0 0 0 0 0 0 0 0 0 0 0 0 0 0 0 0 0 0 0 0 0 0 0 0 0 0 0 0 0 0 0 0 0 0 0 0 0 0 0 0 0 0 0 0 0 0 0 0 0 0 0 0 0 0 0 0 0 0 0 0 0 0 0 0 0 0 0 0 0 0 0 0 0 0 0 0 0 0 0 0 0 0 0 0 0 0 0 0 0 0 0 0 0 0 0 0 0 0 0 0 0 0 0 0 0 0 0 0 0 0 0 0 0 0 0 0 0 0 0 0 0 0 0 0 0 0 0 0 0 0 0 0 0 0 0 0 0 0 0 0 0 0 0 0 0 0 0 0 0 0 0 0 0 0 0 0 0 0 0 0 0 0 0 0 0 0 0 0 0 0 0 0 0 0 0 0 0 0 0 0 0 0 0 0 0 0 0 0 0 0 0 0 0 0 0 0 0 0 0 0 0 0 0 0 0 0 0 0 0 0 0 0 0 0 0 0 0 0 0 0 0 0 0 0 0 0 0 0 0 0 0 0 0 0 0 0 0 0 0 0 0 0 0 0 0 0 0 0 0 0 0 0 0 0 0 0 0 0 0 0 0 0 0 0 0 0 0 0 0 0 0 0 0 0 0 0 0 0 0 0 0 0 0 0 0 0 0 0 0 0 0 0 0 0 0 0 0 0 0 0 0 0 0 0 0 0 0 0 0 0 0 0 0 0 0 0 0 0 0 0 0 0 0 0 0 0 0 0 0 0 0 0 0 0 0 0 0 0 0 0 0 0 0 0 0 0 0 0 0 0 0 0 0 0 0 0 0 0 0 0 0 0 0 0 0 0 0 0 0 0 0 0 0 0 0 0 0 0 0 0 0 0 0 0 0 0 0 0 0 0 0 0 0 0 0 0 0 0 0 0 0 0 0 0 0 0 0 0 0 0 0 0 0 0 0 0 0 0 0 0 0 0 0 0 0 0 0 0 0 0 0 0 0 0 0 0 0 0 0 0 0 0 0 0 0 0 0 0 0 0 0 0 0 0 0 0 0 0 0 0 0 0 0 0 0 0 0 0 0 0 0 0 0 0 0 0 0 0 0 0 0 0 0 0 0 0 0 0 0 0 0 0 0 0 0 0 0 0 0 0 0 0 0 0 0 0 0 0 0 0 0 0 0 0 0 0 0 0 0 0 0 0 0 0 0 0 0 0 0 0 0 0 0 0 0 0 0 0 0 0 0 0 0 0 0 0 0 0 0 0 0 0 0 0 0 0 0 0 0 0 0 0 0 0 0 0 0 0 0 0 0 0 0 0 0 0 0 0 0 0 0 0 0 0 0 0 0 0 0 0 0 0 0 0 0 0 0 0 0 0 0 0 0 0 0 0 0 0 0 0 0 0 0 0 0 0 0 0 0 0 0 0 0 0 0 0 0 0 0 0 0 0 0 0 0 0 0 0 0 0 0 0 0 0 0 0 0 0 0 0 0 0 0 0 0 0 0 0 0 0 0 0 0 0 0 0 0 0 0 0 0 0 0 0 0 0 0 0 0 0 0 0 0 0 0 0 0 0 0 0 0 0 0 0 0 0 0 0 0 0 0 0 0 0 0 0 0 0 0 0 0 0 0 0 0 0 0 0 0 0 0 0 0 0 0 0 0 0 0 0 0 0 0 0 0 0 0 0 0 0 0 0 0 0 0 0 0 0 0 0 0 0 0 0 0 0 0 0 0 0 0 0 0 0 0 0 0 0 0 0 0 0 0 0 0 0 0 0 0 0 0 0 0 0 0 0 0 0 0 0 0 0 0 0 0 0 0 0 0 0 0 0 0 0 0 0 0 0 0 0 0 0 0 0 0 0 0 0 0 0 0 0 0 0 0 0 0 0 0 0 0 0 0 0 0 0 0 0 0 0 0 0 0 0 0 0 0 0 0 0 0 0 0 